
Gurobi 11.0.3 (linux64) logging started Tue Apr 14 07:03:40 2026

Set parameter LogFile to value "tree/results/wine/wine_depth-4_run-2/Full MIP/LogFile_FullModel.txt"
Gurobi Optimizer version 11.0.3 build v11.0.3rc0 (linux64 - "CentOS Linux 7 (Core)")

CPU model: Intel(R) Xeon(R) Platinum 8260 CPU @ 2.40GHz, instruction set [SSE2|AVX|AVX2|AVX512]
Thread count: 96 physical cores, 192 logical processors, using up to 32 threads

Optimize a model with 28605 rows, 17721 columns and 394689 nonzeros
Model fingerprint: 0x410329d0
Model has 2128 general constraints
Variable types: 11094 continuous, 6627 integer (6627 binary)
Coefficient statistics:
  Matrix range     [2e-03, 1e+04]
  Objective range  [8e-03, 1e+04]
  Bounds range     [1e+00, 5e+02]
  RHS range        [1e-04, 9e+02]

User MIP start produced solution with objective 0.969925 (0.09s)
Loaded user MIP start with objective 0.969925

Presolve added 2112 rows and 8511 columns
Presolve time: 0.86s
Presolved: 30717 rows, 26232 columns, 411662 nonzeros
Presolved model has 8512 SOS constraint(s)
Variable types: 11093 continuous, 15139 integer (15139 binary)

Deterministic concurrent LP optimizer: primal and dual simplex (primal and dual model)
Showing primal log only...

Root relaxation presolved: 30701 rows, 26216 columns, 411662 nonzeros


Root simplex log...

Iteration    Objective       Primal Inf.    Dual Inf.      Time
    4834   -0.0000000e+00   3.699666e+02   5.927892e+08      5s
    5448    1.0000000e+00   0.000000e+00   0.000000e+00      8s
    5448    1.0000000e+00   0.000000e+00   0.000000e+00      8s
Concurrent spin time: 2.59s (can be avoided by choosing Method=3)

Solved with primal simplex

Root relaxation: objective 1.000000e+00, 5448 iterations, 8.88 seconds (4.86 work units)
Total elapsed time = 15.08s (DegenMoves)

    Nodes    |    Current Node    |     Objective Bounds      |     Work
 Expl Unexpl |  Obj  Depth IntInf | Incumbent    BestBd   Gap | It/Node Time

     0     0    1.00000    0 1321    0.96992    1.00000  3.10%     -   17s
     0     2    1.00000    0 1235    0.96992    1.00000  3.10%     -   51s
     3     8    1.00000    2 1243    0.96992    1.00000  3.10%  3351   87s
     7    16    1.00000    3  828    0.96992    1.00000  3.10%  2313  107s
    15    32    1.00000    4  824    0.96992    1.00000  3.10%  1691  135s
    31    64    1.00000    5  821    0.96992    1.00000  3.10%  1507  146s
    63    96    1.00000    6  855    0.96992    1.00000  3.10%   815  150s
    95   128    1.00000    7  856    0.96992    1.00000  3.10%   572  183s
H   98   128                       0.9774436    1.00000  2.31%   554  183s
H  109   128                       0.9924812    1.00000  0.76%   501  183s
   159   192    1.00000    9  857    0.99248    1.00000  0.76%   363  285s
   191   224    1.00000   10  986    0.99248    1.00000  0.76%   354  509s
H  195   224                       1.0000000    1.00000  0.00%   460  509s

Explored 223 nodes (196913 simplex iterations) in 509.31 seconds (465.10 work units)
Thread count was 32 (of 192 available processors)

Solution count 4: 1 0.992481 0.977444 0.969925 

Optimal solution found (tolerance 1.00e-04)
Best objective 1.000000000000e+00, best bound 1.000000000000e+00, gap 0.0000%

User-callback calls 222384, time in user-callback 2.76 sec
